7 0 1 6 2 3 4 5 0 214
999999999 74 48 55 93 11 75 
74 999999999 53 85 74 47 19 
48 53 999999999 13 35 56 48 
55 85 13 999999999 42 82 74 
93 74 35 42 999999999 7 80 
11 47 56 82 7 999999999 26 
75 19 48 74 80 26 999999999 
